88177 14052 31593 44690 12124 14764 86962 26390 5957 53651 37636 18801
75845 17958 98313 48421 45977 12493 65794 35463 97220 55064 72060 25414
39180 77736 82551 12822 30817 33937 72998 28960 46647 78358 68379 69539
26286 98141 19165 66377 42923 75256 77318 93105 9315 70719 8651 95561
60965 40627 72105 18290 42890 88781 88498 44472 1824 63372 74764 50491
22062 66473 84901 51844 20432 67896 9442 55018 72684 3594 45029 59710
97008 72410 80218 33695 87595 48966 22147 42498 32039 76208 17721 74878
40624 51099 17107 92628 84790 87171 16652 19170 55074 5367 67295 41625
43938 78924 95121 86037 81747 35187 68455 28732 65277 19692 27466 79895
31297 90075 55306 53730 25340 2736 98709 30771 99213 25806 70951 11082
70378 48656 27002 72836 83895 3647 20201 6266 65603 55260 87785 84662
17883 10450 89714 6579 81118 28081 62875 69686 97234 98296 18372 86667
